webassembly/ejemplos_dzn/folder6_json_97.dzn
TERM = { '.', 'in_1', 'in_6', 'in_2', 'in_4', 'in_3', 's(1)', 's(0)', 'in_5', 'in_0'};
null = '.';
s = 6;
n = 12;
ndeps = 6;
max_registers_sz = 3;
NR = 0;
registers = [| |];
dependencies = [|'i32.store16_0', 'i32.store16_1', |'i32.store16_1', 'i32.store16_2', |'i32.store16_2', 'i32.load16_s_3', |'i32.store16_2', 'i32.load8_s_4', |'i32.load16_s_3', 'call[function_index(0)]_5', |'i32.load8_s_4', 'call[function_index(0)]_5'|];
GET_ENUM = { GET1, GET2, GET3};
SET_ENUM = { SET1, SET2, SET3};
TEE_ENUM = { TEE1, TEE2, TEE3};
N = 6;
OP = { 'call[function_index(0)]_5', 'i32.store16_0', 'i32.store16_1', 'i32.store16_2', 'i32.load16_s_3', 'i32.load8_s_4' };
in_ops = [1, 2, 2, 2, 1, 1 ];
out_ops = [0, 0, 0, 0, 1, 1 ];
in1 = ['s(1)', 'in_0', 'in_2', 'in_4', 'in_6', 's(0)' ];
in2 = ['.', 'in_1', 'in_3', 'in_5', '.', '.' ];
in3 = ['.', '.', '.', '.', '.', '.' ];
out1 = ['.', '.', '.', '.', 's(0)', 's(1)' ];
out2 = ['.', '.', '.', '.', '.', '.' ];
out3 = ['.', '.', '.', '.', '.', '.' ];
comm = [false, false, false, false, false, false ];
gas = [1, 1, 1, 1, 1, 1 ];
sz = [1, 1, 1, 1, 1, 1 ];
stor = [true, true, true, true, false, false ];
lb = [ 1, 1, 1, 1, 1, 1 ];
ub = [ 6, 6, 6, 6, 6, 6 ];
startstack = [ 'in_0', 'in_1', 'in_2', 'in_3', 'in_4', 'in_5', 'in_6', null, null, null, null, null ];
endstack = [ null, null, null, null, null, null, null, null, null, null, null, null ];
